!File created by the GAMESS Input Deck Generator Plugin for Avogadro
 $BASIS GBASIS=STO NGAUSS=3 $END
 $CONTRL SCFTYP=RHF RUNTYP=IRC NZVAR=1 mult=1  ICHARG=0 $END
 $STATPT hssend=.t. OPTTOL=0.0005 NSTEP=50 $END
 $STATPT HESS=calc ihrep=5 $END
 $FORCE nvib=2 $END
 $ZMAT DLC=.t. auto=.t. nonvdw(1)=4,3,6,1,6,5,1,2,2,3,5,4 $END
!$ZMAT IFZMAT(1)=1,4,3,1,6,1 fvalue(1)=2.00,2.00 $END
 $irc npoint=50 saddle=.t. tsengy=.t. forwrd=.t. opttol=0.0005 stride=0.2 $end

 $DATA 
Title
C1
C     6.0    -3.11788440    -0.90811169    -0.34642512
C     6.0    -3.53908944    -0.12436230     0.74244380
C     6.0    -2.86663675     1.07967579     1.01073813
C     6.0    -1.01480126     0.64041984     1.32571065
C     6.0    -0.90264159    -0.75151432     1.16624069
C     6.0    -1.23555541    -1.25438857    -0.10611139
C     6.0    -0.66116208    -0.46327224    -1.26080453
C     6.0    -0.25650004     0.78152508    -1.11819613
C     6.0    -0.36676657     1.48735011     0.21468593
O     8.0     0.02041180     2.63237405     0.40002045
H     1.0    -3.01919508    -0.40775290    -1.30266666
H     1.0    -3.56492400    -1.89214790    -0.44663838
H     1.0    -3.96525955    -0.64829630     1.59027648
H     1.0    -3.14556813     1.61762118     1.91082716
H     1.0    -2.71038270     1.74726558     0.17102118
H     1.0    -0.83036274     1.04447865     2.31743360
H     1.0    -1.01887238    -1.39237916     2.03165841
H     1.0    -1.18391109    -2.33038092    -0.24585226
H     1.0    -0.59571046    -0.97028846    -2.21739721
H     1.0     0.18315820     1.34267747    -1.93224025
 $END

 $HESS
ENERGY IS     -416.0940640581 E(NUC) IS      511.5054475245
 1  1 1.61794979E-01 2.40951289E-01-5.43836299E-02-1.02423665E-01-1.02151814E-01
 1  2 5.42464161E-03 1.48179993E-01 4.18628427E-02 1.09378565E-02-1.00928230E-01
 1  3 9.89404704E-02-7.71419659E-03-5.27917839E-02-1.19379084E-01-1.14142639E-01
 1  4 1.60285824E-01 1.51611927E-02 1.02794914E-01-4.54192486E-02-1.32122390E-02
 1  5 1.21971944E-02-1.81536380E-03 1.17250909E-02 6.44653258E-04 9.17779240E-03
 1  6-3.48714268E-03 2.56293795E-03-7.41651155E-04 3.39208154E-03-1.69023561E-03
 1  7-2.82649286E-02-3.11622330E-02 4.30306832E-02-1.17375530E-01-1.51614379E-01
 1  8-6.07569097E-03 1.26744338E-03 9.98224019E-03 8.96622254E-03-3.31737701E-03
 1  9-4.13008972E-03-1.19364903E-03-1.90990848E-02 4.86157106E-03-4.59505338E-04
 1 10 6.32269390E-03-6.14192512E-04-5.16746117E-04-7.16947259E-05 2.51417785E-04
 1 11 1.19940214E-03-1.99703104E-02-2.83640856E-04-2.13511658E-03 1.80723083E-03
 1 12-3.33391620E-05-1.50305273E-04 3.38291086E-03-1.06004182E-03 7.03208530E-04
 2  1 2.40951289E-01 8.38650204E-01 3.20451971E-02 3.41119854E-02-1.85499093E-01
 2  2-1.25095989E-01-5.90880484E-02-4.94410382E-02-5.39240233E-02 4.94626569E-02
 2  3-5.08227663E-02-1.25415491E-04 1.98457807E-02 5.06148368E-02 4.80013896E-02
 2  4-9.22366657E-02-5.12986643E-02-4.33739465E-02 1.05925592E-03 4.26124026E-03
 2  5-3.22806117E-03 1.96515430E-05-4.50317370E-03 2.52806947E-04-6.28633450E-03
 2  6 1.39976147E-03-1.48289705E-03 9.78181001E-04-1.07376744E-03 8.23211806E-04
 2  7-3.78619828E-02-1.66241720E-01 1.57554071E-01-1.67000419E-01-3.96956450E-01
 2  8-3.16570612E-02-7.18251980E-03 1.47682404E-02 1.98512546E-02-4.33926350E-03
 2  9-5.21150178E-03-6.61080277E-04 9.54864915E-03-2.25708650E-04 5.34680517E-04
 2 10-3.87672259E-03 1.45076154E-03 9.23736912E-04-1.01945628E-03 1.14144969E-03
 2 11-1.52647058E-03 2.35538925E-02-1.88042296E-03 1.40730080E-03-1.12922843E-06
 2 12 3.17132063E-04 2.37447952E-05-6.38800346E-04 5.50679699E-04-3.42449363E-04
 3  1-5.43836299E-02 3.20451971E-02 8.87306785E-01 1.06625872E-01-9.64652616E-02
 3  2-3.47291331E-01-6.18792636E-02-3.19932811E-02-1.52744574E-02 4.25701039E-02
 3  3-4.00270906E-02 1.40823142E-03 6.07002199E-04 3.16591070E-02 2.79807513E-02
 3  4-6.41549608E-02-6.99694880E-05-7.00731754E-02 1.55091739E-02-1.07931097E-03
 3  5 9.17086560E-04 7.90971794E-04-4.08920052E-04 3.35138363E-04-4.77125681E-03
 3  6 6.74955180E-04-4.30526382E-03 5.55853097E-04 2.17707299E-04 1.39359956E-03
 3  7 1.47020368E-02 1.61675874E-01-3.81577287E-01-1.54713859E-02-2.69140629E-02
 3  8-8.71453017E-02 9.26472557E-03-2.86599914E-02-1.69335651E-02 5.19354088E-03
 3  9-2.57802466E-03 2.35977224E-03 3.03233605E-03-1.98910783E-03 1.02442645E-03
 3 10-2.54975008E-03 1.53006378E-03 1.06636746E-03 1.77255858E-04 1.44492813E-03
 3 11-1.46980072E-03 5.69225116E-03-1.43848820E-04 6.08145397E-04-3.49310924E-04
 3 12 6.60706287E-04-6.47766224E-04-1.16156563E-03 4.20330328E-04 3.17644943E-04
 4  1-1.02423665E-01 3.41119854E-02 1.06625872E-01 4.27440687E-01 1.93609443E-01
 4  2-2.16092685E-01-1.15281411E-01-1.63296830E-01 5.65200554E-05-5.47870592E-02
 4  3 2.67416263E-02-4.18026355E-03-3.89030847E-02-1.19843230E-02-3.80524523E-03
 4  4-2.28905498E-02 4.78742820E-03-1.74835680E-03 1.31150061E-03 8.57567233E-04
 4  5-1.76852175E-04-3.85010324E-04-3.28369937E-04 2.54650184E-04 4.08135073E-03
 4  6 7.01264355E-04-8.07921777E-04-1.08823335E-03-9.09400516E-04 1.29361420E-04
 4  7-2.20136904E-03 5.27419811E-03 1.18729108E-03 1.06757540E-02-1.33260308E-02
 4  8-1.83366545E-02-1.10097147E-01-8.76435385E-02 1.34223030E-01 8.42489777E-03
 4  9 1.64687765E-02 3.86018378E-03-8.82147053E-03-1.40418895E-03-4.99767857E-03
 4 10 1.98489683E-03-1.17688000E-03-2.44753514E-04 3.22859890E-03-2.61461756E-03
 4 11 3.03691728E-03 5.47686220E-05 2.81217736E-04 7.03214928E-04-1.27729286E-04
 4 12-2.46415560E-04 3.49244689E-04-1.95724623E-04 9.70877726E-05-3.58744481E-05
 5  1-1.02151814E-01-1.85499093E-01-9.64652616E-02 1.93609443E-01 7.47706901E-01
 5  2 1.85387406E-02-2.56388966E-02-3.80804086E-01-3.39531214E-02-1.22283239E-01
 5  3 9.16177277E-02-8.61781101E-03 4.70940318E-03-9.81754600E-02-7.54485004E-02
 5  4 1.45102044E-01 2.06412017E-03 6.78244034E-02-1.25177058E-02-2.62561679E-03
 5  5 4.32612532E-03-2.03845864E-03 4.82961330E-03-4.67465141E-04 1.16220104E-02
 5  6 3.12446070E-04 2.11013272E-03-1.19612354E-03 1.27943537E-03-1.93158169E-03
 5  7 1.37215672E-02 1.66358895E-02 2.08005141E-02 2.56615055E-02-1.32297834E-02
 5  8-2.75017183E-02-7.36464098E-02-1.68446679E-01 1.42655570E-01-2.09710790E-02
 5  9-6.28165955E-03-2.29691356E-04-3.51043812E-02-7.77818269E-03-1.08720912E-02
 5 10 7.69214144E-03-1.54750709E-03-5.73693485E-04-7.03403584E-04 5.79235536E-04
 5 11-2.54865862E-04-8.01363516E-03 6.24281624E-04-3.45872107E-04 5.36896163E-04
 5 12-5.36779165E-04 1.94808446E-04 1.61013621E-03-7.24803953E-04 2.11378508E-04
 6  1 5.42464161E-03-1.25095989E-01-3.47291331E-01-2.16092685E-01 1.85387406E-02
 6  2 7.96843928E-01 9.01091080E-02-1.38868070E-02-1.38324539E-01-8.38847741E-02
 6  3 5.52103003E-02-6.34000681E-03-2.71012899E-02-6.78832358E-02-4.53389919E-02
 6  4 1.00584274E-01 5.06568857E-03 5.23077219E-02-8.44548606E-03-6.55306936E-04
 6  5 1.27602798E-03-1.15672769E-03 2.39065805E-03 2.97427605E-04 7.19054206E-03
 6  6 1.90912509E-03 1.01123923E-04-5.79943183E-04-1.32755579E-04-8.62145781E-04
 6  7 3.21769062E-02-2.76702310E-02-1.68570597E-02 7.51406739E-03 2.34445079E-03
 6  8 4.18010584E-03 1.16012784E-01 1.44432609E-01-3.13894903E-01-2.80319116E-02
 6  9-2.65459816E-02-8.31066454E-04 7.99080303E-03 3.33153888E-02 1.43017422E-02
 6 10 3.34850213E-03-4.18544389E-04 1.45974045E-04 1.39532119E-03-4.09168614E-05
 6 11 1.62296637E-04-7.75189970E-03 1.07494037E-05-3.94653284E-04 3.23456532E-04
 6 12-4.38082879E-04 4.32292663E-04 9.74311004E-04-4.49858825E-04 8.60559219E-05
 7  1 1.48179993E-01-5.90880484E-02-6.18792636E-02-1.15281411E-01-2.56388966E-02
 7  2 9.01091080E-02 1.38622754E-01 1.01773254E-01-1.82911624E-01 1.48197153E-01
 7  3-1.42973268E-01 5.95474233E-03-1.74688774E-02 1.61744556E-01 8.86157543E-02
 7  4-1.30629430E-01-1.22738140E-02-9.01444326E-02 1.17846751E-02-1.83577409E-03
 7  5-8.20405719E-04 4.53418873E-03-3.15892558E-03 6.68853509E-04-4.62937001E-02
 7  6-1.22180725E-02 4.04440876E-03 4.33848048E-03 5.67843144E-03 3.00536664E-03
 7  7-2.19936110E-02 2.19677194E-03-1.81958197E-03-1.23798424E-03 2.37327173E-03
 7  8 3.27553231E-03-3.73541744E-03-1.00823691E-02-7.93001158E-03-7.29531867E-02
 7  9 3.79041787E-02 9.25215157E-02-3.32777874E-02-4.93321241E-02 5.62650160E-02
 7 10-1.76570408E-02 5.15035658E-03 1.55450816E-03-1.56937879E-03-1.36906590E-03
 7 11 6.52298207E-04 9.31608749E-03-1.30797548E-04-7.12657867E-05-1.13662305E-03
 7 12 7.80826796E-04-4.38186370E-04-1.73888346E-03 4.99509373E-04-6.52332208E-04
 8  1 4.18628427E-02-4.94410382E-02-3.19932811E-02-1.63296830E-01-3.80804086E-01
 8  2-1.38868070E-02 1.01773254E-01 8.96094403E-01 4.44681728E-02 4.96713732E-02
 8  3-7.09935222E-02 4.66987577E-03 9.14527942E-03 2.80531635E-02 1.80199189E-02
 8  4-4.70312520E-02-8.16145735E-03-2.90845795E-02 6.27312767E-03 1.07823002E-03
 8  5 7.38115323E-04 1.65440876E-03-2.33464311E-03-1.00692464E-04-9.50578072E-03
 8  6 2.03800417E-03-4.85837898E-03-7.58905195E-04-2.28978169E-03 2.69141582E-03
 8  7-3.25733679E-03 1.10039950E-03-1.03841957E-03-2.98457834E-03-2.20616983E-04
 8  8-4.61516518E-03-1.11188335E-02-1.19704695E-02-1.46607462E-02 5.37259284E-02
 8  9-1.76296851E-01-1.55722344E-01-2.14308376E-02-2.27761550E-01 1.81773355E-01
 8 10-7.06302754E-03 1.36524152E-03 6.80828865E-07 1.32285936E-05-1.28576411E-03
 8 11 2.11489979E-03 3.76075670E-03 1.09046632E-03 1.25056173E-03-3.25926673E-04
 8 12 1.57937841E-04 5.87120690E-06-1.10689093E-03 5.81934882E-04 2.27546706E-04
 9  1 1.09378565E-02-5.39240233E-02-1.52744574E-02 5.65200554E-05-3.39531214E-02
 9  2-1.38324539E-01-1.82911624E-01 4.44681728E-02 8.57593613E-01 4.30512988E-02
 9  3-3.33923423E-02-4.62408050E-02-4.82016165E-03 3.49685297E-02 1.91467434E-02
 9  4-2.68785812E-02-7.48610488E-03-2.23873324E-02 1.45436257E-03-2.52269239E-03
 9  5 1.80715340E-03-1.47119768E-03 1.89818208E-04 5.28833739E-04 6.59089983E-03
 9  6-6.02537391E-04 2.78208432E-03-5.30811070E-04 6.22414982E-04-2.61190546E-04
 9  7-6.18842425E-03 1.31524494E-03 1.59690391E-03 5.01036564E-03-3.84766388E-03
 9  8-4.24678469E-03 1.66656448E-02 3.13271973E-02 1.25817799E-02 1.01666653E-01
 9  9-1.61807392E-01-3.51055966E-01 5.17379796E-02 1.81158738E-01-3.18715216E-01
 9 10-1.79040193E-02 3.71823684E-03-4.04701699E-04 7.55261755E-04-7.78538398E-04
 9 11 5.42265774E-04 2.93956980E-03 4.59380948E-04 2.09379855E-04-2.16146527E-04
 9 12 8.77832526E-05-3.89709255E-05 5.45535223E-05-1.10049178E-06 1.61204795E-04
10  1-1.00928230E-01 4.94626569E-02 4.25701039E-02-5.47870592E-02-1.22283239E-01
10  2-8.38847741E-02 1.48197153E-01 4.96713732E-02 4.30512988E-02 1.48556198E-01
10  3 1.98167405E-01-5.75895587E-03-6.47221038E-02-9.60033186E-02-5.44996322E-02
10  4 8.83689258E-02 1.44777580E-03 7.02131201E-02-1.15856190E-02 9.34454256E-03
10  5-6.64407396E-03 1.01315787E-02-5.52928084E-03-1.37735515E-04-9.01823502E-02
10  6-2.31010545E-02 5.15250622E-02 2.03972993E-03-3.29638264E-02 1.02722794E-02
10  7 1.13948049E-02-7.35651848E-04 1.85421798E-03 3.39138511E-03-5.93454065E-04
10  8 1.81743691E-03 4.54009113E-04 8.58964380E-04 5.65620113E-04-1.69061726E-02
10  9 4.11848353E-03-7.84011198E-03-2.57637583E-02 6.57962917E-03-2.13699064E-03
10 10-5.86303069E-02-2.81766870E-02-5.58019556E-02 8.03523749E-03-7.17739847E-03
10 11-2.26297989E-03-2.39696878E-04-1.22241799E-03-2.84588845E-03-2.65273973E-04
10 12-3.65759711E-04-1.30862998E-04 3.44154875E-03-1.49874159E-03 7.48218605E-05
11  1 9.89404704E-02-5.08227663E-02-4.00270906E-02 2.67416263E-02 9.16177277E-02
11  2 5.52103003E-02-1.42973268E-01-7.09935222E-02-3.33923423E-02 1.98167405E-01
11  3 7.88415272E-01 1.35016482E-01 6.46582384E-03-4.03255125E-01 3.97509215E-02
11  4-9.44508799E-02-2.73792536E-02-8.57927204E-02 6.25525353E-03-5.98490086E-03
11  5 4.16073268E-03 4.21658328E-03 1.42627868E-02-1.02067734E-02-6.13747260E-02
11  6-1.34055716E-01 4.03197169E-02-3.44628946E-02-4.86401215E-02 3.78024790E-02
11  7-1.37499453E-02 1.26466340E-03-3.03327095E-04-4.05679242E-03 2.92639953E-03
11  8-7.67873420E-04-1.61776997E-03-8.65100912E-04 1.70194955E-03 1.47283686E-02
11  9-3.96654342E-03 5.90157065E-03 2.52741365E-02-6.71668307E-03 2.26814200E-03
11 10-4.28865181E-02-1.28020492E-01-1.33223392E-01 6.80295531E-03-1.48934949E-02
11 11-1.35725431E-02 6.89815338E-03-1.52925136E-04-1.66875498E-03-2.36328475E-05
11 12 1.20499879E-04 9.25389392E-05 1.10565112E-03-2.86070580E-03-3.27001686E-03
12  1-7.71419659E-03-1.25415491E-04 1.40823142E-03-4.18026355E-03-8.61781101E-03
12  2-6.34000681E-03 5.95474233E-03 4.66987577E-03-4.62408050E-02-5.75895587E-03
12  3 1.35016482E-01 8.34194120E-01 3.50209011E-03-5.69606249E-02-1.63794107E-01
12  4 9.22788175E-03-4.93562277E-02 5.02293071E-03 2.93597807E-04 5.50916825E-03
12  5 9.38447591E-04 2.00312615E-02 1.69435788E-02-2.54029416E-02 5.64982106E-02
12  6 3.96660313E-02-2.18889722E-01 2.39655189E-03 8.99112256E-03 1.85978678E-02
12  7 4.51597596E-04-1.64367245E-04 5.22793080E-04 8.54568924E-05 5.46238968E-04
12  8 2.29344666E-04-8.83700820E-04 6.50469245E-05 2.40584380E-04 1.17699028E-02
12  9-3.84213459E-03 3.57846919E-03-1.61896229E-02 4.61121303E-03-1.12139407E-03
12 10-6.61956834E-02-1.26256692E-01-4.04113109E-01-3.77984324E-03 3.43279605E-02
12 11 1.15524616E-02-4.02396580E-03-1.47001160E-03-7.57447928E-03-1.15821908E-03
12 12 3.60295109E-04 9.79866177E-04-3.26842018E-04-3.91372854E-03-3.78855321E-03
13  1-5.27917839E-02 1.98457807E-02 6.07002199E-04-3.89030847E-02 4.70940318E-03
13  2-2.71012899E-02-1.74688774E-02 9.14527942E-03-4.82016165E-03-6.47221038E-02
13  3 6.46582384E-03 3.50209011E-03 2.63255903E-01 4.38935555E-02 1.87797943E-02
13  4-5.18722807E-02-3.36998483E-02-4.84474238E-02 7.87270033E-05 1.96410138E-03
13  5 1.94734399E-02 5.89444495E-04 1.86215776E-03 2.30495485E-03 1.53351427E-03
13  6-1.93014279E-02 4.73915535E-04-1.43110390E-03-7.51001624E-04 2.79511290E-03
13  7 2.92137579E-03-7.46403986E-04-9.37760240E-05 1.44023522E-03-8.75642900E-04
13  8-1.72865117E-04 5.25209739E-03 4.21975486E-04-1.54461495E-03-2.57054797E-05
13  9 6.48202809E-04-9.82936824E-05-2.82126560E-04 9.57842811E-04 7.39705259E-05
13 10 3.61331509E-03-1.10830237E-02-1.70275963E-03-5.14384885E-02-2.50850384E-02
13 11 2.79706550E-02 3.71808187E-04 4.42494261E-03 5.70777443E-03-4.39325483E-04
13 12-2.69698166E-03 2.45335200E-03 3.18460129E-04-9.96970541E-05-1.60877005E-04
14  1-1.19379084E-01 5.06148368E-02 3.16591070E-02-1.19843230E-02-9.81754600E-02
14  2-6.78832358E-02 1.61744556E-01 2.80531635E-02 3.49685297E-02-9.60033186E-02
14  3-4.03255125E-01-5.69606249E-02 4.38935555E-02 8.41147404E-01-9.52262800E-02
14  4 6.48522080E-02-1.84206053E-01-3.00430988E-02-3.65116448E-03 2.37213855E-02
14  5 1.59027018E-02-4.26306824E-04-7.68352047E-04-2.58969464E-03 1.60741178E-02
14  6-3.58586966E-02 1.90814616E-02-7.15216838E-04 6.53841272E-03-1.73126192E-03
14  7 1.28230051E-02-1.43931648E-03 2.51669570E-03 4.01952217E-03-1.15558271E-03
14  8 1.49559046E-03-1.90251006E-04-3.56551959E-04 1.08217499E-03-7.09122229E-03
14  9 1.99947962E-03-3.14086437E-03-1.47803927E-02 4.09276494E-03-1.07395351E-03
14 10 1.41666190E-02-7.65772318E-03 6.04331991E-03-3.71372777E-02-2.15159646E-01
14 11 1.84042176E-01-2.45739448E-02-3.79599946E-03-4.05449745E-02-2.47373198E-03
14 12-3.87508679E-03 4.01477769E-03 8.32650704E-04-4.63854688E-04-1.61254695E-03
15  1-1.14142639E-01 4.80013896E-02 2.79807513E-02-3.80524523E-03-7.54485004E-02
15  2-4.53389919E-02 8.86157543E-02 1.80199189E-02 1.91467434E-02-5.44996322E-02
15  3 3.97509215E-02-1.63794107E-01 1.87797943E-02-9.52262800E-02 8.97688218E-01
15  4 2.39621827E-02-1.16177327E-01-3.82438650E-01-1.70855681E-02 7.01810446E-03
15  5-4.51499443E-02-1.75894837E-03-6.88088771E-03-2.43171866E-04-8.49335696E-04
15  6 2.63645529E-02 2.05035571E-02 5.27752973E-03 6.65437542E-03-7.38311385E-03
15  7 1.31451486E-02-1.47243352E-03 1.47174807E-03 4.71521825E-03-2.34718368E-03
15  8 1.39672938E-03 3.12252853E-04 5.02677326E-04-5.11708435E-04-3.11053249E-03
15  9 1.40609450E-03-9.24128905E-04-7.66650933E-03 2.71267914E-03-6.08241487E-04
15 10 1.27110056E-02-4.19577147E-02 4.79252990E-03 4.52041421E-02 1.82459812E-01
15 11-3.28702333E-01-1.10476278E-02 6.09879794E-03 3.12994932E-03 1.14826899E-03
15 12 1.57253701E-03-1.15826800E-03 9.47404003E-05-1.05153382E-03 1.42431696E-04
16  1 1.60285824E-01-9.22366657E-02-6.41549608E-02-2.28905498E-02 1.45102044E-01
16  2 1.00584274E-01-1.30629430E-01-4.70312520E-02-2.68785812E-02 8.83689258E-02
16  3-9.44508799E-02 9.22788175E-03-5.18722807E-02 6.48522080E-02 2.39621827E-02
16  4 1.08464618E-01 5.35777664E-02-1.01624523E-01-8.18382567E-02-2.75262127E-02
16  5 5.48752138E-02 3.13402185E-04-2.65082240E-02 4.99371111E-03-2.01834344E-02
16  6 1.44074925E-02-9.19422096E-03 1.72832918E-03-6.12927292E-03 2.87377995E-03
16  7-3.22347141E-02 4.36875417E-03-4.92242252E-03-1.70072287E-02 8.49022576E-03
16  8-4.11613092E-03-1.20134263E-03-4.74711612E-05-1.56786644E-03 4.82614807E-03
16  9-2.45380610E-03 2.14567789E-03 1.29551872E-02-4.14272709E-03-5.89629502E-05
16 10 1.39420368E-03 1.85449100E-03 9.57687401E-04 6.55422975E-03 2.75501043E-03
16 11 7.70618141E-03-4.00858518E-02 1.05554079E-02 3.84781979E-03 3.93422087E-03
16 12-2.25936455E-03-1.55446865E-03 9.11799970E-03-3.17752367E-03 2.89772685E-03
17  1 1.51611927E-02-5.12986643E-02-6.99694880E-05 4.78742820E-03 2.06412017E-03
17  2 5.06568857E-03-1.22738140E-02-8.16145735E-03-7.48610488E-03 1.44777580E-03
17  3-2.73792536E-02-4.93562277E-02-3.36998483E-02-1.84206053E-01-1.16177327E-01
17  4 5.35777664E-02 9.14219259E-01 9.65783693E-02-4.88294279E-02-1.83414685E-01
17  5 7.76990401E-02-1.96794626E-02-2.23971939E-02 3.55247513E-02 4.08694868E-03
17  6 1.88783277E-03-7.31544736E-04-2.81423793E-04 4.14963848E-04 1.43306057E-03
17  7 9.24176661E-03-4.96815877E-04 1.05729134E-03-1.35749659E-02 4.23482715E-03
17  8-3.67108168E-03 1.20480869E-03 4.03634952E-04-6.71087559E-04 1.40477433E-03
17  9 3.87954081E-04 1.55048593E-03 2.74620998E-03 1.53901745E-04-3.65116964E-04
17 10-1.49053491E-04-8.68800936E-03 1.04409916E-03 5.96231099E-03 1.32008300E-02
17 11 2.49020263E-02 2.77141997E-02-4.60817955E-01-4.74597042E-02 8.24631769E-03
17 12 1.22093390E-02-1.57682830E-02-7.09350367E-03-2.31657475E-03-3.09836558E-03
18  1 1.02794914E-01-4.33739465E-02-7.00731754E-02-1.74835680E-03 6.78244034E-02
18  2 5.23077219E-02-9.01444326E-02-2.90845795E-02-2.23873324E-02 7.02131201E-02
18  3-8.57927204E-02 5.02293071E-03-4.84474238E-02-3.00430988E-02-3.82438650E-01
18  4-1.01624523E-01 9.65783693E-02 7.68349842E-01 8.55261098E-02 5.15241823E-02
18  5-2.35589841E-01-2.35968343E-04 1.63606392E-02 9.59434268E-03-8.45097152E-03
18  6 5.70673086E-04-3.88183331E-03 1.02815878E-03-5.23297032E-04 3.15212277E-04
18  7-2.88675444E-02 4.19221558E-03-4.00689900E-03-4.91833905E-03 2.37661304E-03
18  8-1.56498902E-03 8.35030453E-04 1.19931914E-03-1.92274437E-03 4.73108418E-03
18  9-4.59845808E-04 2.59019815E-03 1.00509175E-02-1.58846688E-03 1.55158715E-04
18 10-6.15789569E-03 1.62741025E-03 4.72917525E-04-1.37258087E-02-2.01635146E-02
18 11-1.68080545E-02 1.52165066E-02-5.15353739E-02-8.47552036E-02 1.30781957E-02
18 12 2.38745642E-02-1.50215555E-02 8.47226361E-04-3.56354601E-03-3.58045679E-04
19  1-4.54192486E-02 1.05925592E-03 1.55091739E-02 1.31150061E-03-1.25177058E-02
19  2-8.44548606E-03 1.17846751E-02 6.27312767E-03 1.45436257E-03-1.15856190E-02
19  3 6.25525353E-03 2.93597807E-04 7.87270033E-05-3.65116448E-03-1.70855681E-02
19  4-8.18382567E-02-4.88294279E-02 8.55261098E-02 3.25065143E-01 2.68087997E-01
19  5-9.34302577E-02-1.48982317E-01-1.99245494E-01 7.29161456E-03 9.67670987E-03
19  6-6.97537763E-03-1.51653281E-02 1.09182453E-03 6.23581026E-03 4.64254603E-03
19  7-3.87092703E-03-2.41405110E-03 3.81769648E-03-6.40358438E-04-2.64868740E-04
19  8-1.05597062E-04 7.46555203E-04-4.63158813E-04 4.86178837E-04-3.82986980E-04
19  9 1.23506710E-06-2.55897962E-04-1.75482985E-03 5.64754405E-04 5.49737071E-04
19 10-3.85022422E-04-4.87627720E-04 2.63783205E-04 5.48094967E-03-2.82704623E-03
19 11-3.74528569E-03-1.37975684E-03 3.16469916E-03-2.89419973E-03-6.31949974E-02
19 12 3.04613687E-03 2.58778795E-02 4.19823590E-03-1.70123468E-02-4.58505941E-03
20  1-1.32122390E-02 4.26124026E-03-1.07931097E-03 8.57567233E-04-2.62561679E-03
20  2-6.55306936E-04-1.83577409E-03 1.07823002E-03-2.52269239E-03 9.34454256E-03
20  3-5.98490086E-03 5.50916825E-03 1.96410138E-03 2.37213855E-02 7.01810446E-03
20  4-2.75262127E-02-1.83414685E-01 5.15241823E-02 2.68087997E-01 1.06719180E+00
20  5 1.68591050E-01-2.12649648E-01-6.95278199E-01-5.61140597E-02-8.26810674E-03
20  6-3.44722159E-02-3.05262969E-02 2.89559780E-03 1.14862228E-02 2.29810540E-03
20  7 1.00388989E-03 1.07444374E-03 9.50720527E-04 7.80393284E-04-5.28612389E-04
20  8 1.25899552E-04 1.83362407E-04-1.23698136E-04 1.49429167E-04 8.24573253E-04
20  9-1.91529572E-04 6.32160622E-04 4.02743971E-04-2.18880770E-05 8.19878147E-05
20 10-1.52933378E-03-4.50340664E-04 9.94173154E-04-5.14259914E-03-1.34585029E-03
20 11-3.25680467E-03-1.89800934E-02-1.12913458E-02 3.47165076E-02 3.98562917E-03
20 12-1.60770413E-01-1.67474660E-01-1.18639055E-03-1.23140262E-02-1.09623574E-02
21  1 1.21971944E-02-3.22806117E-03 9.17086560E-04-1.76852175E-04 4.32612532E-03
21  2 1.27602798E-03-8.20405719E-04 7.38115323E-04 1.80715340E-03-6.64407396E-03
21  3 4.16073268E-03 9.38447591E-04 1.94734399E-02 1.59027018E-02-4.51499443E-02
21  4 5.48752138E-02 7.76990401E-02-2.35589841E-01-9.34302577E-02 1.68591050E-01
21  5 8.08038072E-01-2.33565852E-03-8.73869366E-02-1.68378420E-01-1.61101404E-02
21  6-4.12206686E-02 1.57028876E-02 2.59284784E-03-3.52301125E-03-1.15507527E-02
21  7-2.68610643E-03 4.15119475E-04 1.34615586E-03-8.13306747E-04 7.27590558E-04
21  8-1.87486299E-04-1.45914381E-04-1.07151854E-04 3.63042926E-04-8.62353382E-04
21  9 1.95213187E-04-7.22093566E-04-8.62513334E-04-3.28768780E-04 1.78468138E-04
21 10-1.46762240E-04 1.17289130E-03 5.93293278E-05-4.14056885E-04-2.03619961E-03
21 11-4.02995885E-03-1.46491896E-04-7.09339224E-03 7.37918724E-03 2.66685584E-02
21 12-1.61431529E-01-3.82835956E-01 9.78763938E-03 3.24271393E-02 1.04385950E-02
22  1-1.81536380E-03 1.96515430E-05 7.90971794E-04-3.85010324E-04-2.03845864E-03
22  2-1.15672769E-03 4.53418873E-03 1.65440876E-03-1.47119768E-03 1.01315787E-02
22  3 4.21658328E-03 2.00312615E-02 5.89444495E-04-4.26306824E-04-1.75894837E-03
22  4 3.13402185E-04-1.96794626E-02-2.35968343E-04-1.48982317E-01-2.12649648E-01
22  5-2.33565852E-03 3.25097517E-01 3.38706434E-01-1.69471021E-01-1.01464446E-01
22  6 2.88433783E-03 3.34966067E-02 1.99154851E-02-2.02640531E-02-1.60270845E-02
22  7 8.20682092E-06-5.20064935E-04 9.24592895E-04-2.12129992E-04-4.38963927E-05
22  8 3.37990708E-04 3.64653604E-05 1.22408631E-04 5.68538158E-05 4.32346948E-04
22  9-1.72367098E-04 2.05022808E-04-8.03672309E-04 1.53688285E-04 3.13610961E-05
22 10-1.72602783E-04-3.07048213E-03 1.95836839E-03-5.31034739E-04-1.31959378E-04
22 11-2.39931208E-04 2.91929449E-04-2.34577462E-04 2.32894241E-03 1.34127282E-02
22 12 1.88009927E-03 4.23353041E-03-1.20396716E-01-9.04063345E-02 1.28301035E-01
23  1 1.17250909E-02-4.50317370E-03-4.08920052E-04-3.28369937E-04 4.82961330E-03
23  2 2.39065805E-03-3.15892558E-03-2.33464311E-03 1.89818208E-04-5.52928084E-03
23  3 1.42627868E-02 1.69435788E-02 1.86215776E-03-7.68352047E-04-6.88088771E-03
23  4-2.65082240E-02-2.23971939E-02 1.63606392E-02-1.99245494E-01-6.95278199E-01
23  5-8.73869366E-02 3.38706434E-01 1.07184600E+00-7.75892764E-03-2.59496348E-03
23  6-1.29177262E-01-3.81108052E-02-1.02110940E-02-4.94795694E-02-6.03706540E-02
23  7 2.45633075E-04-1.19454157E-04-9.49364551E-05-7.76870782E-04 5.58065923E-04
23  8 7.06030237E-06-1.22716616E-04 2.30152641E-04 3.74737985E-06-9.11990893E-05
23  9 2.35310261E-04-3.93859011E-04-9.29836818E-05 2.70862197E-05-5.57461120E-04
23 10-2.12948124E-03-2.78243739E-03 2.68848957E-03 5.33580571E-04 6.10953665E-04
23 11-2.23493723E-04 1.05500130E-03 5.78370960E-05 1.47279977E-03-9.45875775E-03
23 12-8.36336948E-03 8.52748562E-03-9.38795359E-02-1.77454153E-01 1.53602605E-01
24  1 6.44653258E-04 2.52806947E-04 3.35138363E-04 2.54650184E-04-4.67465141E-04
24  2 2.97427605E-04 6.68853509E-04-1.00692464E-04 5.28833739E-04-1.37735515E-04
24  3-1.02067734E-02-2.54029416E-02 2.30495485E-03-2.58969464E-03-2.43171866E-04
24  4 4.99371111E-03 3.55247513E-02 9.59434268E-03 7.29161456E-03-5.61140597E-02
24  5-1.68378420E-01-1.69471021E-01-7.75892764E-03 7.52157002E-01 3.51501479E-02
24  6-4.02066328E-02-2.67421112E-01-5.99632568E-03-3.43028210E-02 2.69391627E-04
24  7 6.02218822E-04-2.95887289E-04 1.18220927E-04-1.13587672E-04-9.55825894E-05
24  8 1.74826878E-04-5.81612862E-05 9.06782264E-05 8.06437924E-05-1.87995977E-04
24  9 7.07457741E-05 7.78900749E-05 5.06581505E-04-2.09696601E-05-4.98305998E-04
24 10 2.96154702E-03 2.41718243E-03-1.40437756E-03 1.13039838E-03-6.23526405E-04
24 11 9.12331222E-04 2.89336330E-03 2.25350991E-03-5.28259084E-03-1.06919196E-02
24 12-3.72130381E-02 7.53069478E-03 1.27254052E-01 1.49386396E-01-3.03445823E-01
25  1 9.17779240E-03-6.28633450E-03-4.77125681E-03 4.08135073E-03 1.16220104E-02
25  2 7.19054206E-03-4.62937001E-02-9.50578072E-03 6.59089983E-03-9.01823502E-02
25  3-6.13747260E-02 5.64982106E-02 1.53351427E-03 1.60741178E-02-8.49335696E-04
25  4-2.01834344E-02 4.08694868E-03-8.45097152E-03 9.67670987E-03-8.26810674E-03
25  5-1.61101404E-02-1.01464446E-01-2.59496348E-03 3.51501479E-02 3.76388209E-01
25  6 3.16433626E-01-5.79064557E-02-1.62177360E-01-2.71129256E-01-3.20392991E-02
25  7-1.29631217E-03-7.30922373E-05 6.57980711E-05-6.36650398E-04 3.99210613E-04
25  8-7.08232264E-06 3.43530283E-04-2.33597933E-04 5.12151032E-04-2.85934385E-06
25  9 4.37381912E-04-2.94586788E-05-4.02173697E-03-2.38397760E-03 2.63229777E-03
25 10 2.61396585E-03 6.21637330E-03-7.29953041E-03 6.41920914E-03 3.60304323E-03
25 11 9.98311744E-04 4.09328610E-04 2.52529972E-04 2.85667196E-04 1.31527250E-02
25 12-6.95609132E-03 4.84857097E-03 2.46251355E-03 9.68068481E-03 1.26909335E-02
26  1-3.48714268E-03 1.39976147E-03 6.74955180E-04 7.01264355E-04 3.12446070E-04
26  2 1.90912509E-03-1.22180725E-02 2.03800417E-03-6.02537391E-04-2.31010545E-02
26  3-1.34055716E-01 3.96660313E-02-1.93014279E-02-3.58586966E-02 2.63645529E-02
26  4 1.44074925E-02 1.88783277E-03 5.70673086E-04-6.97537763E-03-3.44722159E-02
26  5-4.12206686E-02 2.88433783E-03-1.29177262E-01-4.02066328E-02 3.16433626E-01
26  6 1.16903690E+00 1.35030575E-01-2.68803554E-01-8.62907827E-01-1.27720614E-01
26  7 9.75291681E-04 1.42621987E-04-4.07183163E-04 6.41048904E-04-5.40118733E-04
26  8 1.35624140E-04-3.69939089E-04-1.58212136E-04-3.38751295E-04 5.97994239E-04
26  9-3.04324343E-04 8.33419842E-04 4.51155455E-03 1.12029159E-03 1.20923360E-03
26 10 5.19995525E-03 1.27278534E-02-1.30690332E-02-3.20339114E-03-3.92355628E-03
26 11-1.74553751E-03 3.95791805E-04 6.51968562E-04 1.99117093E-04-7.11658570E-03
26 12-1.64586621E-03-4.16181452E-04-2.17181187E-03 1.37261200E-02 1.91338323E-02
27  1 2.56293795E-03-1.48289705E-03-4.30526382E-03-8.07921777E-04 2.11013272E-03
27  2 1.01123923E-04 4.04440876E-03-4.85837898E-03 2.78208432E-03 5.15250622E-02
27  3 4.03197169E-02-2.18889722E-01 4.73915535E-04 1.90814616E-02 2.05035571E-02
27  4-9.19422096E-03-7.31544736E-04-3.88183331E-03-1.51653281E-02-3.05262969E-02
27  5 1.57028876E-02 3.34966067E-02-3.81108052E-02-2.67421112E-01-5.79064557E-02
27  6 1.35030575E-01 6.18880954E-01-3.24801798E-02-1.24512725E-01-1.25164010E-01
27  7-2.86769440E-03 1.69140294E-04-3.45776711E-04-9.20247150E-05 6.51990548E-04
27  8-6.85627896E-04 2.85929039E-04-2.87203541E-04-2.47324005E-04-5.24433645E-04
27  9 1.28561115E-04-3.66940980E-04-1.58953511E-03 3.65661652E-04 1.71653111E-03
27 10 1.67320910E-02 2.35703208E-02-1.75848791E-02 3.30289892E-03-4.84631265E-03
27 11-2.33157673E-03 1.52806606E-03 9.51636893E-04-2.53310659E-03 6.52923900E-03
27 12 1.49747696E-03-2.27618281E-03 1.46639043E-04-1.85205102E-02-1.36537819E-02
28  1-7.41651155E-04 9.78181001E-04 5.55853097E-04-1.08823335E-03-1.19612354E-03
28  2-5.79943183E-04 4.33848048E-03-7.58905195E-04-5.30811070E-04 2.03972993E-03
28  3-3.44628946E-02 2.39655189E-03-1.43110390E-03-7.15216838E-04 5.27752973E-03
28  4 1.72832918E-03-2.81423793E-04 1.02815878E-03 1.09182453E-03 2.89559780E-03
28  5 2.59284784E-03 1.99154851E-02-1.02110940E-02-5.99632568E-03-1.62177360E-01
28  6-2.68803554E-01-3.24801798E-02 1.38983098E-01 3.12677956E-01 3.09883243E-02
28  7-7.19663480E-05-3.38668503E-05-6.69489942E-05 1.29233233E-04-5.88058071E-05
28  8-5.74912533E-05 8.59248497E-05 1.02691440E-05-1.94016119E-04 1.28656379E-04
28  9 3.73460988E-06 1.41830642E-05-1.86543526E-04 2.25482443E-04 3.27422082E-04
28 10-3.10162107E-05 7.72644385E-04-1.00668567E-03-1.26408702E-05-1.70352567E-03
28 11-6.17219630E-04 1.22063112E-04 5.21675965E-05-2.20580474E-04-1.88896104E-03
28 12 6.34806587E-04-7.92899131E-04-9.33348922E-04-2.54295322E-05-6.37769740E-04
29  1 3.39208154E-03-1.07376744E-03 2.17707299E-04-9.09400516E-04 1.27943537E-03
29  2-1.32755579E-04 5.67843144E-03-2.28978169E-03 6.22414982E-04-3.29638264E-02
29  3-4.86401215E-02 8.99112256E-03-7.51001624E-04 6.53841272E-03 6.65437542E-03
29  4-6.12927292E-03 4.14963848E-04-5.23297032E-04 6.23581026E-03 1.14862228E-02
29  5-3.52301125E-03-2.02640531E-02-4.94795694E-02-3.43028210E-02-2.71129256E-01
29  6-8.62907827E-01-1.24512725E-01 3.12677956E-01 9.45040516E-01 1.47330431E-01
29  7-3.92754358E-04-6.57301095E-05-1.81898403E-05-3.07105552E-04 2.57938311E-04
29  8-1.13231019E-04 2.74078108E-04 2.12961704E-04-3.15495166E-05-3.76972044E-04
29  9 8.78861264E-05-3.39792205E-04-7.22034141E-04-3.59383851E-05-4.61596161E-04