 $BASIS GBASIS=STO NGAUSS=3 $END
 $CONTRL SCFTYP=RHF RUNTYP=SADPOINT NZVAR=1 mult=1  ICHARG=0 $END
 $STATPT hssend=.t. OPTTOL=0.0005 NSTEP=50 $END
 $STATPT HESS=calc ihrep=5 $END
 $FORCE nvib=2 $END
 $ZMAT DLC=.t. auto=.t. nonvdw(1)=4,3,6,1,6,5,1,2,2,3,5,4 $END
!$ZMAT IFZMAT(1)=1,4,3,1,6,1 fvalue(1)=2.00,2.00 $END

 $DATA 
Title
C1
C     6.0    -3.15322232    -0.89250511    -0.35539830
C     6.0    -3.54648113    -0.12435293     0.74680746
C     6.0    -2.89914370     1.08805716     1.01168561
C     6.0    -0.97840166     0.63142014     1.33142364
C     6.0    -0.90068924    -0.75701433     1.16814601
C     6.0    -1.20380354    -1.26245201    -0.10458776
C     6.0    -0.64854425    -0.46887267    -1.25907123
C     6.0    -0.25318393     0.78015709    -1.11777651
C     6.0    -0.35947704     1.48445261     0.21528471
O     8.0     0.00965325     2.63760591     0.39341846
H     1.0    -3.02967739    -0.38412842    -1.30383182
H     1.0    -3.59006405    -1.87984717    -0.46364629
H     1.0    -3.96716261    -0.65393335     1.59378433
H     1.0    -3.16197515     1.61789572     1.92100370
H     1.0    -2.72702312     1.75547934     0.17559639
H     1.0    -0.80633706     1.03668547     2.32438040
H     1.0    -1.02822733    -1.39737046     2.03240371
H     1.0    -1.17487574    -2.33874202    -0.24423860
H     1.0    -0.58553714    -0.97319353    -2.21718359
H     1.0     0.17519517     1.34531403    -1.93507898
 $END
