 $BASIS GBASIS=STO NGAUSS=3 $END
 $CONTRL SCFTYP=RHF RUNTYP=OPTIMIZE NZVAR=1 mult=1  ICHARG=0 $END
 $STATPT hssend=.t. OPTTOL=0.0005 NSTEP=50 $END
 $STATPT HESS=calc ihrep=5 $END
 $FORCE nvib=2 $END
 $ZMAT DLC=.t. auto=.t. nonvdw(1)=4,3,6,1 $END
 $ZMAT IFZMAT(1)=1,4,3,1,6,1 fvalue(1)=2.00,2.00 $END

 $DATA 
Title
C1
C     6.0    -3.16623    -0.81384    -0.35031
C     6.0    -3.59750    -0.16716     0.76262
C     6.0    -2.92840     1.10964     1.19335
C     6.0    -0.98191     0.67529     1.31929
C     6.0    -0.94308    -0.81348     1.11206
C     6.0    -1.22201    -1.24879    -0.14714
C     6.0    -0.53065    -0.50986    -1.23090
C     6.0    -0.11393     0.75807    -1.10078
C     6.0    -0.34936     1.46275     0.18574
O     8.0    -0.06928     2.65582     0.28361
H     1.0    -2.89532    -0.17609    -1.19899
H     1.0    -3.61039    -1.78457    -0.58445
H     1.0    -4.17672    -0.70490     1.50899
H     1.0    -3.18708     1.39660     2.21609
H     1.0    -3.01086     1.94011     0.48816
H     1.0    -0.65761     1.01537     2.30513
H     1.0    -1.10573    -1.46131     1.96779
H     1.0    -1.33378    -2.32658    -0.31136
H     1.0    -0.36019    -1.05272    -2.15693
H     1.0     0.38644     1.30597    -1.88749
 $END
