!   File created by the GAMESS Input Deck Generator Plugin for Avogadro
 $BASIS GBASIS=STO NGAUSS=3 $END
 $CONTRL SCFTYP=RHF RUNTYP=ENERGY $END

 $DATA 
Title
C1
C     6.0     0.99020    -0.11555     0.04760
C     6.0     2.49471    -0.06843     0.00567
C     6.0     3.29293    -1.17178    -0.01289
C     6.0     4.66135    -0.73104    -0.50833
C     6.0     4.71408     0.71471    -0.03741
C     6.0     3.27831     1.19508    -0.21677
H     1.0     0.62628    -1.15950     0.15427
H     1.0     0.58231     0.31061    -0.89233
H     1.0     0.61395     0.48288     0.90305
H     1.0     2.83364    -2.16749    -0.17754
H     1.0     4.64079    -0.76139    -1.62034
H     1.0     5.51615    -1.33765    -0.14043
H     1.0     5.49314     1.35391    -0.50373
H     1.0     4.91513     0.68519     1.05757
H     1.0     3.07905     1.52682    -1.25875
H     1.0     3.04876     2.01457     0.49747
B     5.0     3.61450    -1.69506     1.97372
H     1.0     4.74432    -1.67686     2.32539
H     1.0     2.63699     0.03019     2.00612
H     1.0     2.99888    -2.66120     2.27341
 $END
