 $BASIS GBASIS=STO NGAUSS=3 $END
 $CONTRL SCFTYP=RHF RUNTYP=SADPOINT NZVAR=1 mult=1  ICHARG=0 $END
 $STATPT hssend=.t. OPTTOL=0.0005 NSTEP=50 $END
 $STATPT HESS=calc ihrep=5 $END
 $FORCE nvib=2 $END
 $ZMAT DLC=.t. auto=.t. nonvdw(1)=3,17,2,19,17,19,2,3 $END
!$ZMAT IFZMAT(1)=1,3,17,1,2,19,1,17,19 fvalue(1)=2.08,2.01,1.98, $END

 $DATA 
Title
C1
C     6.0     1.02838194    -0.22934695     0.10500244
C     6.0     2.55498743    -0.18925305     0.26883233
C     6.0     3.37129188    -1.24520361    -0.19971375
C     6.0     4.73338223    -0.73618156    -0.66677165
C     6.0     4.79232979     0.71421677    -0.12268886
C     6.0     3.31267428     1.13830292     0.03213006
H     1.0     0.62865686    -1.17416668     0.46005648
H     1.0     0.79069114    -0.13116439    -0.95311624
H     1.0     0.55169713     0.58098584     0.64661300
H     1.0     2.95025849    -2.17057371    -0.56485975
H     1.0     4.76662493    -0.73705965    -1.75705266
H     1.0     5.56619740    -1.34123981    -0.31405735
H     1.0     5.33549833     1.38088942    -0.78687072
H     1.0     5.28422928     0.73014033     0.84594774
H     1.0     2.93951225     1.55212939    -0.90529889
H     1.0     3.15699792     1.87626874     0.81320989
B     5.0     3.27657127    -1.36820912     1.87448430
H     1.0     4.33756351    -1.13928294     2.26045299
H     1.0     2.24838686     0.29310241     2.19585848
H     1.0     2.56062269    -2.23946261     2.11320758
 $END
