!   File created by the GAMESS Input Deck Generator Plugin for Avogadro
 $BASIS GBASIS=STO NGAUSS=3 $END
 $CONTRL SCFTYP=RHF RUNTYP=SADPOINT NZVAR=1 mult=1  ICHARG=0 $END
 $STATPT hssend=.t. OPTTOL=0.0005 NSTEP=50 $END
 $STATPT HESS=calc ihrep=5 $END
 $FORCE nvib=2 $END
 $ZMAT DLC=.t. auto=.t. nonvdw(1)=4,14,4,5,14,5,15,5 $END
!$ZMAT IFZMAT(1)=1,4,14,1,14,15 fvalue(1)=2.01,2.20 $END

 $DATA 
Title
C1
C     6.0     0.76148796    -1.18745899    -0.76009595
C     6.0     1.04189825    -0.07343199     0.04717147
C     6.0    -0.24318935     0.23387006     0.85106003
C     6.0    -1.37902355    -0.31370041    -0.05098607
C     6.0    -0.72366923    -1.44565928    -0.88875532
H     1.0     1.51584458    -1.77217424    -1.28134251
H     1.0     1.98374867    -0.04351215     0.58988303
H     1.0    -0.35471216     1.29369843     1.06653559
H     1.0    -0.20155446    -0.30512634     1.79647005
H     1.0    -1.73995674     0.47182038    -0.71014398
H     1.0    -2.22006106    -0.67754143     0.53204679
H     1.0    -1.05551183    -1.45324409    -1.92806160
H     1.0    -0.94385946    -2.43332815    -0.47574046
Br    35.0     1.28126645     1.27134120    -1.35849130
Br    35.0     1.75396574     3.89402580    -2.73620009
 $END
